<number of tasks>
50

<cycle time>
1000

<order strength>
0.597


<task times>
1 160
2 29
3 125
4 154
5 255
6 323
7 314
8 489
9 140
10 80
11 290
12 97
13 140
14 69
15 168
16 536
17 101
18 57
19 138
20 255
21 116
22 172
23 114
24 200
25 244
26 198
27 47
28 521
29 231
30 577
31 187
32 541
33 381
34 116
35 266
36 48
37 204
38 65
39 138
40 300
41 280
42 256
43 63
44 427
45 97
46 54
47 134
48 560
49 247
50 565

<precedence relations>
1,10
2,42
3,5
3,6
3,7
3,8
3,9
4,5
4,7
4,9
5,10
6,10
7,10
8,42
9,10
9,11
9,12
9,13
9,14
10,15
10,16
10,17
10,18
10,19
10,20
11,42
12,20
12,42
13,20
13,21
14,23
15,22
16,22
16,23
17,21
17,22
17,23
18,21
18,22
18,23
19,38
19,43
21,28
22,28
23,24
23,25
23,26
23,27
24,28
25,28
26,28
27,29
27,30
27,31
27,32
28,33
28,34
28,35
28,36
28,37
29,43
29,50
30,39
30,40
31,37
31,44
32,41
33,43
33,44
33,45
35,41
35,42
36,39
36,40
37,38
37,45
38,42
39,42
41,43
41,44
41,45
42,46
42,47
42,48
42,49
45,50

<end>
